000 000 000 000 000 000 000 000 000 -99 -99 -99 -99 000 000 000 -99 -99 -99 000 000 000 -99 -99 000 000 000 000 -99 -99 -99
000 000 000 000 000 000 000 000 000 -99 -99 -99 -99 000 000 000 -99 -99 000 000 000 000 000 000 000 000 -99 000 -99 -99 -99
000 000 000 000 001 000 001 000 000 000 -99 000 000 -99 000 000 -99 -99 000 -99 000 000 000 000 000 -99 -99 000 -99 -99 -99
000 000 000 000 001 000 000 000 000 000 000 000 000 -99 000 000 -99 -99 -99 000 000 000 000 000 000 000 -99 -99 -99 -99 -99
000 000 000 000 000 000 000 000 000 000 000 000 000 000 000 000 -99 000 -99 -99 000 000 000 000 000 000 -99 -99 -99 -99 -99
000 000 000 000 000 000 000 000 000 000 000 000 000 000 000 000 000 000 -99 -99 000 000 000 000 000 -99 -99 -99 -99 -99 -99
000 000 000 000 000 000 000 000 000 000 000 000 000 000 000 000 000 000 -99 -99 000 000 000 000 000 -99 -99 -99 -99 -99 -99
000 000 000 000 000 000 000 000 000 000 000 000 000 000 000 000 000 000 000 -99 000 000 000 000 000 -99 -99 -99 -99 000 000
000 000 000 000 000 000 000 000 000 000 000 000 -99 -99 000 000 -99 000 000 -99 000 000 -99 000 000 -99 -99 -99 -99 000 000
-99 000 000 000 000 000 -99 -99 000 000 000 000 000 -99 000 000 000 000 000 -99 000 000 -99 -99 000 000 -99 -99 -99 000 000
000 000 000 000 000 -99 -99 -99 000 000 000 000 000 000 000 000 000 000 000 -99 000 000 -99 -99 000 000 -99 -99 -99 000 000
000 000 000 000 000 000 000 000 000 000 000 000 000 000 000 000 000 000 000 -99 -99 000 -99 -99 000 -99 000 000 -99 000 000
000 000 000 000 000 000 000 000 000 000 000 000 000 000 000 000 000 000 000 000 000 -99 -99 -99 -99 -99 -99 -99 -99 000 000
000 000 000 000 000 000 000 000 000 -99 -99 000 000 -99 000 000 000 -99 000 000 000 -99 -99 000 000 000 000 000 000 -99 000
000 000 001 000 000 000 000 000 000 -99 -99 000 000 000 000 000 000 -99 000 000 000 -99 -99 000 000 000 000 000 000 -99 000
000 001 001 000 000 000 000 000 000 000 -99 -99 000 000 000 000 000 000 000 000 000 000 -99 -99 000 000 000 000 000 000 -99
001 001 000 000 000 000 000 000 000 000 -99 -99 -99 000 000 000 000 000 000 000 -99 000 000 -99 000 000 000 000 000 000 000
001 002 001 000 000 000 000 000 000 000 -99 -99 -99 000 000 000 000 000 000 000 000 000 000 -99 -99 -99 -99 -99 -99 000 000
002 002 001 000 000 000 000 000 000 -99 -99 -99 -99 000 001 001 000 001 000 000 000 000 000 -99 -99 -99 -99 -99 -99 000 000
001 002 001 000 000 000 000 000 000 000 -99 -99 000 001 003 008 006 006 004 001 000 000 000 -99 -99 -99 -99 -99 -99 -99 -99
001 002 002 000 000 000 -99 000 000 000 -99 -99 000 001 006 005 009 008 008 003 000 000 000 -99 -99 -99 -99 -99 -99 -99 -99
001 002 002 001 000 000 000 000 000 000 -99 000 000 001 004 007 008 017 018 008 002 000 001 -99 -99 -99 -99 -99 -99 -99 -99
001 002 002 002 000 000 000 000 000 000 000 000 000 002 004 004 006 009 015 008 002 000 002 005 -99 -99 -99 -99 -99 -99 -99
003 003 001 002 002 001 001 000 000 000 000 000 001 002 003 002 003 004 007 005 004 002 005 004 -99 -99 -99 -99 -99 -99 -99
003 003 001 001 002 001 001 000 000 000 000 000 000 000 000 001 001 002 002 002 004 003 005 004 -99 -99 -99 -99 -99 -99 -99
001 002 001 001 001 001 000 001 000 000 000 000 000 001 001 001 001 001 001 001 001 001 002 -99 -99 -99 -99 -99 -99 -99 -99
000 001 000 001 000 000 000 000 000 000 000 000 000 000 000 000 000 000 000 000 000 000 000 -99 -99 -99 -99 -99 -99 -99 -99
000 000 000 000 000 000 000 000 000 000 000 000 000 000 000 000 000 000 000 000 000 000 000 -99 -99 -99 -99 -99 -99 -99 -99
000 000 000 000 000 000 000 000 000 000 000 000 000 000 000 000 000 000 000 000 000 000 -99 002 -99 -99 -99 -99 -99 -99 -99
000 000 000 000 000 000 000 000 000 000 000 000 -99 000 000 000 000 -99 000 000 000 000 002 002 001 000 000 -99 -99 -99 -99
000 000 000 000 000 000 000 000 000 000 000 000 -99 000 000 -99 -99 000 000 000 -99 -99 001 002 001 000 000 -99 -99 -99 -99
000 000 000 000 000 -99 000 000 000 000 000 -99 -99 000 000 -99 000 000 000 -99 -99 -99 000 000 000 000 000 -99 -99 -99 -99
000 000 000 000 000 -99 000 000 000 000 000 -99 000 000 -99 -99 000 000 000 -99 -99 -99 000 000 000 000 -99 -99 -99 000 -99
000 000 000 000 000 000 000 000 000 000 -99 -99 000 000 000 -99 000 000 -99 -99 000 -99 000 000 000 000 000 001 001 000 000
000 000 000 000 000 000 000 000 000 000 -99 -99 000 000 000 000 000 000 000 000 000 -99 000 000 000 000 000 000 001 000 000
000 000 000 000 000 -99 000 000 000 000 000 000 000 000 000 000 000 -99 000 000 000 000 000 000 000 000 000 000 000 000 000
000 -99 000 000 000 -99 -99 000 000 000 000 -99 000 000 000 000 000 000 000 000 000 000 000 000 000 000 000 000 000 000 000
000 000 000 000 000 000 000 000 000 000 -99 000 000 000 000 000 000 000 000 -99 000 000 000 000 000 000 000 000 000 000 000
000 000 000 000 000 000 000 000 000 000 000 000 000 000 000 000 000 000 000 000 000 000 000 000 000 000 000 000 000 000 000
000 000 000 000 000 000 000 000 000 000 000 000 000 000 000 000 000 000 000 000 000 000 000 000 000 000 000 000 000 000 001
000 000 000 000 000 000 000 000 000 000 001 000 000 000 000 000 000 000 000 000 000 000 000 000 000 000 000 000 000 000 001
000 000 000 000 000 000 000 000 000 000 001 000 000 000 000 000 000 000 000 000 000 000 000 000 000 000 000 000 000 000 001
000 000 -99 -99 000 000 000 000 000 000 001 000 000 000 000 000 000 000 000 000 000 000 000 000 000 000 000 000 -99 000 000
000 -99 -99 -99 000 000 000 000 000 000 001 000 000 000 000 000 -99 000 000 000 000 000 000 000 000 000 000 000 000 -99 000
000 000 -99 -99 000 000 000 000 000 000 000 000 000 000 000 000 000 000 000 000 000 000 000 001 002 000 000 000 -99 -99 000
000 -99 -99 000 000 -99 000 000 000 000 000 000 000 000 000 001 000 000 000 000 000 001 000 002 003 000 001 001 -99 -99 000
000 -99 000 000 000 -99 000 000 000 000 000 000 000 000 001 003 003 001 001 000 000 002 000 007 007 002 002 001 -99 -99 -99
-99 -99 -99 000 -99 -99 -99 -99 -99 000 000 000 000 000 001 005 002 002 000 000 001 001 001 006 002 002 002 001 -99 -99 -99
-99 -99 -99 -99 -99 -99 -99 -99 000 000 000 000 000 000 002 003 003 002 000 000 001 001 001 003 000 000 000 -99 -99 -99 -99
-99 -99 -99 -99 -99 -99 -99 -99 000 000 000 000 000 000 001 001 003 001 000 000 001 002 001 000 000 000 000 000 -99 -99 -99
-99 -99 -99 -99 -99 -99 -99 -99 000 000 000 -99 000 000 000 001 002 003 001 000 001 001 000 000 000 000 000 -99 -99 -99 -99
-99 -99 -99 -99 -99 -99 -99 -99 000 000 000 000 000 000 000 001 003 005 001 000 000 000 000 -99 000 000 000 -99 -99 -99 -99
-99 -99 -99 -99 -99 -99 -99 -99 000 000 000 000 000 000 000 000 006 005 001 002 000 000 -99 000 000 -99 -99 000 000 -99 -99
-99 -99 -99 -99 -99 -99 -99 -99 -99 000 000 000 -99 000 000 001 006 001 006 001 000 000 -99 -99 000 -99 000 000 000 -99 -99
-99 -99 -99 -99 -99 -99 000 -99 000 000 000 000 000 000 000 001 000 001 005 001 000 -99 -99 -99 -99 -99 000 000 000 -99 -99
